c 67_3_checker_6cl.cnf
c
c field = 67
c formula set type = 3_checker_6cl
c
p cnf 6 58
126 
128 
130 
-125 
-122 
-134 
127 
129 
131 
-124 
-123 
-135 
126 
128 
130 
-135 
-124 
-136 
127 
129 
131 
-134 
-125 
-137 
128 
130 
134 
-127 
-124 
-136 
129 
131 
135 
-126 
-125 
-137 
128 
130 
134 
-137 
-126 
-138 
129 
131 
135 
-136 
-127 
-139 
130 
134 
136 
-129 
-126 
-138 
131 
135 
137 
-128 
-127 
-139 
130 
134 
136 
-139 
-128 
-140 
131 
135 
137 
-138 
-129 
-141 
134 
136 
138 
-131 
-128 
-140 
135 
137 
139 
-130 
-129 
-141 
134 
136 
138 
-141 
-130 
-142 
135 
137 
139 
-140 
-131 
-143 
42 
72 
102 
-163 
-12 
-192 
43 
73 
103 
-162 
-13 
-193 
72 
102 
162 
-43 
-12 
-192 
73 
103 
163 
-42 
-13 
-193 
72 
102 
162 
-193 
-42 
-222 
73 
103 
163 
-192 
-43 
-223 
102 
162 
192 
-73 
-42 
-222 
103 
163 
193 
-72 
-43 
-223 
102 
162 
192 
-223 
-72 
-252 
103 
163 
193 
-222 
-73 
-253 
162 
192 
222 
-103 
-72 
-252 
163 
193 
223 
-102 
-73 
-253 
162 
192 
222 
-253 
-102 
-282 
163 
193 
223 
-252 
-103 
-283 
36 
68 
100 
-165 
-4 
-196 
37 
69 
101 
-164 
-5 
-197 
68 
100 
164 
-37 
-4 
-196 
69 
101 
165 
-36 
-5 
-197 
68 
100 
164 
-197 
-36 
-228 
69 
101 
165 
-196 
-37 
-229 
100 
164 
196 
-69 
-36 
-228 
101 
165 
197 
-68 
-37 
-229 
100 
164 
196 
-229 
-68 
-260 
101 
165 
197 
-228 
-69 
-261 
164 
196 
228 
-101 
-68 
-260 
165 
197 
229 
-100 
-69 
-261 
164 
196 
228 
-261 
-100 
-292 
165 
197 
229 
-260 
-101 
-293 
48 
76 
104 
-161 
-20 
-188 
49 
77 
105 
-160 
-21 
-189 
76 
104 
160 
-49 
-20 
-188 
77 
105 
161 
-48 
-21 
-189 
76 
104 
160 
-189 
-48 
-216 
77 
105 
161 
-188 
-49 
-217 
104 
160 
188 
-77 
-48 
-216 
105 
161 
189 
-76 
-49 
-217 
104 
160 
188 
-217 
-76 
-244 
105 
161 
189 
-216 
-77 
-245 
160 
188 
216 
-105 
-76 
-244 
161 
189 
217 
-104 
-77 
-245 
160 
188 
216 
-245 
-104 
-272 
161 
189 
217 
-244 
-105 
-273 
